param set_len = 26;
param target = 222346;
param values := [0] 9703 [1] 21303 [2] 6431 [3] 6585 [4] 10170 [5] 6851 [6] 30350 [7] 7937 [8] 28584 [9] 19961 [10] 27650 [11] 26636 [12] 7942 [13] 27379 [14] 5417 [15] 32016 [16] 16441 [17] 20103 [18] 25718 [19] 2084 [20] 12118 [21] 5012 [22] 29069 [23] 23727 [24] 29592 [25] 20422 ;
